32      4       
14      18      11      18      
0       0       0       0       0       4       2       13      30      31      
10      0       0       11      7       2       3       29      
1       1       0       4       0       1       4       
8       0       1       0       15      2       5       18      
3       0       8       3       0       1       6       
3       11      0       2       0       1       7       
6       2       0       0       17      3       8       17      26      
5       0       16      1       0       1       9       
3       5       0       0       1       3       10      24      25      
4       14      12      0       0       1       11      
8       0       0       1       5       4       12      21      22      23      
5       8       0       0       2       2       14      20      
4       0       1       0       3       2       16      28      
6       10      0       10      0       1       15      
5       13      8       0       0       1       16      
6       0       10      7       0       1       19      
8       1       0       5       0       1       19      
2       0       8       0       18      1       27      
9       0       5       1       0       1       32      
10      4       8       0       0       1       32      
3       4       0       0       7       1       32      
3       0       0       11      4       1       32      
10      0       0       7       14      1       32      
3       0       18      0       9       1       32      
6       0       14      8       0       1       32      
9       2       18      0       0       1       32      
10      12      0       0       18      1       32      
10      9       0       1       0       1       32      
6       0       7       0       8       1       32      
7       0       1       0       7       1       32      
1       9       0       11      0       1       32      
0       0       0       0       0       0       
